(set-info :smt-lib-version 2.6)
(set-logic QF_UFLRA)
(set-info :source |
MathSat group

|)
(set-info :category "random")
(set-info :status sat)
(declare-fun x0 () Real)
(declare-fun x1 () Real)
(declare-fun x2 () Real)
(declare-fun x3 () Real)
(declare-fun x4 () Real)
(declare-fun x5 () Real)
(declare-fun x6 () Real)
(declare-fun x7 () Real)
(declare-fun x8 () Real)
(declare-fun x9 () Real)
(declare-fun x10 () Real)
(declare-fun x11 () Real)
(declare-fun x12 () Real)
(declare-fun x13 () Real)
(declare-fun x14 () Real)
(declare-fun x15 () Real)
(declare-fun x16 () Real)
(declare-fun x17 () Real)
(declare-fun x18 () Real)
(declare-fun x19 () Real)
(declare-fun x20 () Real)
(declare-fun x21 () Real)
(declare-fun x22 () Real)
(declare-fun x23 () Real)
(declare-fun x24 () Real)
(declare-fun x25 () Real)
(declare-fun x26 () Real)
(declare-fun x27 () Real)
(declare-fun x28 () Real)
(declare-fun x29 () Real)
(declare-fun x30 () Real)
(declare-fun x31 () Real)
(declare-fun x32 () Real)
(declare-fun x33 () Real)
(declare-fun x34 () Real)
(declare-fun x35 () Real)
(declare-fun x36 () Real)
(declare-fun x37 () Real)
(declare-fun x38 () Real)
(declare-fun x39 () Real)
(declare-fun f0_1 (Real) Real)
(declare-fun f0_2 (Real Real) Real)
(declare-fun f0_3 (Real Real Real) Real)
(declare-fun f0_4 (Real Real Real Real) Real)
(declare-fun P0 () Bool)
(declare-fun P1 () Bool)
(declare-fun P2 () Bool)
(declare-fun P3 () Bool)
(declare-fun P4 () Bool)
(declare-fun P5 () Bool)
(declare-fun P6 () Bool)
(declare-fun P7 () Bool)
(declare-fun P8 () Bool)
(declare-fun P9 () Bool)
(declare-fun P10 () Bool)
(declare-fun P11 () Bool)
(declare-fun P12 () Bool)
(declare-fun P13 () Bool)
(declare-fun P14 () Bool)
(declare-fun P15 () Bool)
(declare-fun P16 () Bool)
(declare-fun P17 () Bool)
(declare-fun P18 () Bool)
(declare-fun P19 () Bool)
(declare-fun P20 () Bool)
(declare-fun P21 () Bool)
(declare-fun P22 () Bool)
(declare-fun P23 () Bool)
(declare-fun P24 () Bool)
(declare-fun P25 () Bool)
(declare-fun P26 () Bool)
(declare-fun P27 () Bool)
(declare-fun P28 () Bool)
(declare-fun P29 () Bool)
(declare-fun P30 () Bool)
(declare-fun P31 () Bool)
(declare-fun P32 () Bool)
(declare-fun P33 () Bool)
(declare-fun P34 () Bool)
(declare-fun P35 () Bool)
(declare-fun P36 () Bool)
(declare-fun P37 () Bool)
(declare-fun P38 () Bool)
(declare-fun P39 () Bool)
(assert (let ((?v_0 (<= (- (- (* 5 x26) (* 36 x18)) (* 47 x9)) 10)) (?v_16 (* 17 x5))) (let ((?v_61 (< (+ (- (* 29 x21) (* 18 x25)) ?v_16) 39)) (?v_44 (<= (- (- (* 47 x17) (* 55 x2)) (* 53 x26)) 37)) (?v_31 (< (- (- (* 36 x12) (* 9 x24)) (* 46 x11)) 35)) (?v_32 (* 54 x38)) (?v_153 (* 4 x20)) (?v_125 (= (+ (- (* 50 x5) (* 16 x20)) (* 53 x15)) 54)) (?v_124 (< (- (- (* 15 x27) (* 48 x17)) (* 31 x4)) 36)) (?v_3 (* 43 x34)) (?v_141 (<= (- (- (* 17 x13) (* 45 x20)) (* 3 x4)) 20)) (?v_111 (<= (- (+ (* 4 x36) (* 20 x28)) (* 47 x37)) 28)) (?v_11 (= (f0_2 x25 x7) (f0_2 x13 x3))) (?v_12 (distinct (f0_1 x29) (f0_1 x15))) (?v_17 (f0_1 x33))) (let ((?v_19 (distinct (f0_2 x13 x1) ?v_17)) (?v_7 (= (f0_2 x10 x34) (f0_2 x8 x9))) (?v_88 (= x19 (f0_1 x38))) (?v_29 (distinct (f0_2 x24 x5) x38)) (?v_22 (= (f0_1 x35) (f0_2 x28 x22))) (?v_104 (= x19 x14)) (?v_114 (distinct x14 (f0_2 x26 x13))) (?v_56 (f0_1 x7))) (let ((?v_84 (distinct ?v_56 x14)) (?v_65 (= (f0_2 x29 x6) (f0_1 x10))) (?v_38 (f0_1 x9))) (let ((?v_121 (distinct (f0_1 x28) ?v_38)) (?v_205 (= (f0_2 x24 x20) ?v_56)) (?v_50 (distinct x11 (f0_1 x14))) (?v_72 (= x29 (f0_2 x16 x4))) (?v_80 (= x7 (f0_2 x26 x39))) (?v_5 (f0_1 x31))) (let ((?v_4 (= x3 ?v_5)) (?v_98 (= (f0_1 x8) (f0_1 x6))) (?v_151 (distinct x15 x35)) (?v_92 (distinct x19 x12)) (?v_86 (distinct x24 x26)) (?v_163 (= x20 (f0_2 x2 x18))) (?v_6 (f0_1 x21))) (let ((?v_48 (= ?v_6 x11)) (?v_10 (f0_1 x32))) (let ((?v_200 (distinct x9 ?v_10)) (?v_180 (distinct x4 (f0_2 x4 x0))) (?v_99 (distinct x24 ?v_56)) (?v_8 (= ?v_5 x22)) (?v_116 (f0_1 x18))) (let ((?v_193 (distinct ?v_116 (f0_2 x10 x36))) (?v_87 (distinct x19 ?v_116)) (?v_150 (distinct (f0_2 x1 x38) x9)) (?v_71 (f0_1 x3))) (let ((?v_75 (distinct ?v_71 ?v_10)) (?v_83 (distinct (f0_2 x16 x21) x22)) (?v_130 (distinct ?v_17 (f0_1 x25))) (?v_134 (= (f0_1 x26) ?v_6)) (?v_144 (distinct (f0_2 x17 x13) (f0_2 x16 x25))) (?v_1 (= (f0_2 x7 x38) (f0_2 x26 x18))) (?v_137 (= ?v_71 (f0_2 x3 x9))) (?v_28 (distinct (f0_1 x39) x21)) (?v_14 (distinct (f0_2 x6 x11) x38)) (?v_152 (distinct ?v_10 ?v_38))) (let ((?v_203 (not ?v_75)) (?v_206 (not ?v_144)) (?v_54 (not ?v_205)) (?v_162 (not P21)) (?v_189 (not P14)) (?v_102 (not P36)) (?v_89 (not P34)) (?v_118 (not ?v_125)) (?v_70 (not ?v_0)) (?v_196 (not P23)) (?v_2 (not ?v_14)) (?v_18 (not ?v_134)) (?v_15 (not P17)) (?v_66 (not ?v_8)) (?v_100 (not P18)) (?v_45 (not ?v_7)) (?v_13 (not P29)) (?v_157 (not ?v_152)) (?v_25 (not P13)) (?v_192 (not P4)) (?v_36 (not ?v_151)) (?v_91 (not P33)) (?v_155 (not P16)) (?v_132 (not ?v_88)) (?v_90 (not ?v_130)) (?v_23 (not P8)) (?v_62 (not ?v_19)) (?v_164 (not ?v_11)) (?v_39 (not ?v_92)) (?v_43 (not P32)) (?v_59 (not P12)) (?v_34 (not ?v_22)) (?v_41 (not P5)) (?v_55 (not P39)) (?v_60 (not ?v_180)) (?v_35 (not P7)) (?v_109 (not ?v_28)) (?v_30 (not ?v_29)) (?v_209 (not ?v_31)) (?v_46 (not P9)) (?v_64 (not ?v_121)) (?v_199 (not ?v_141)) (?v_51 (not ?v_12)) (?v_167 (not ?v_98)) (?v_103 (not P20)) (?v_123 (not ?v_48)) (?v_107 (not ?v_84)) (?v_143 (not ?v_200)) (?v_76 (not P35)) (?v_113 (not ?v_61)) (?v_138 (not ?v_114)) (?v_175 (not ?v_65)) (?v_73 (not ?v_137)) (?v_129 (not P6)) (?v_148 (not P38)) (?v_81 (not P10)) (?v_85 (not ?v_80)) (?v_184 (not ?v_50)) (?v_131 (not ?v_72)) (?v_128 (not ?v_83)) (?v_156 (not P28)) (?v_101 (not P1)) (?v_126 (not P30)) (?v_166 (not ?v_99)) (?v_149 (not ?v_87)) (?v_133 (not P2)) (?v_110 (not ?v_104)) (?v_178 (not P27)) (?v_181 (not ?v_111)) (?v_135 (not P31)) (?v_119 (not ?v_4)) (?v_177 (not ?v_124)) (?v_154 (not P22)) (?v_146 (not P25)) (?v_161 (not P37)) (?v_140 (not P24)) (?v_195 (not ?v_86)) (?v_173 (not ?v_44)) (?v_168 (not P3)) (?v_185 (not ?v_150)) (?v_194 (not P15)) (?v_201 (not P19))) (let ((?v_202 (or ?v_13 ?v_104)) (?v_191 (not ?v_163)) (?v_197 (not P26)) (?v_211 (not ?v_193)) (?v_204 (not P0)) (?v_210 (not P11)) (?v_172 (distinct (+ (* 42 x29) (* 55 x16) (* 31 x7)) 9))) (let ((?v_82 (not ?v_172)) (?v_42 (< (+ ?v_32 (* 22 x2)) 49)) (?v_40 (<= (+ (* 10 x28) (* 36 x36) (* 29 x1)) 36))) (let ((?v_160 (not ?v_40)) (?v_171 (not ?v_42)) (?v_188 (= (+ (- (* 7 x26) (* 28 x27)) (* 43 x1)) (- 1)))) (let ((?v_122 (not ?v_188)) (?v_52 (<= (+ (* (- 30) x30) (* 6 x7) (* 9 x33)) 39)) (?v_94 (< (+ (- (* (- 42) x13) (* 25 x39)) (* 57 x25)) (- 50))) (?v_37 (<= (+ (* 14 x23) (* 9 x25) (* 18 x11)) (- 59))) (?v_24 (< (+ (- (* 42 x25) (* 40 x3)) ?v_3) (- 52)))) (let ((?v_21 (not ?v_24)) (?v_67 (= (+ (* (- 40) x6) ?v_3 (* 48 x9)) (- 15)))) (let ((?v_93 (not ?v_67)) (?v_58 (< (+ (- (* (- 17) x3) (* 38 x23)) (* 20 x9)) (- 50))) (?v_112 (< (- (+ (* (- 54) x11) (* 12 x25)) (* 45 x3)) 6))) (let ((?v_79 (not ?v_112)) (?v_120 (distinct (+ (- (* 3 x31) x11) (* 8 x5)) (- 39)))) (let ((?v_190 (not ?v_120)) (?v_47 (< (+ (- (* (- 28) x22) (* 44 x20)) (* 46 x4)) (- 4))) (?v_9 (<= (- (+ (* (- 27) x17) (* 15 x9)) (* 13 x24)) 55))) (let ((?v_96 (not ?v_9)) (?v_165 (<= (- (+ (* (- 30) x13) (* 50 x18)) (* 18 x21)) (- 26)))) (let ((?v_20 (not ?v_165)) (?v_95 (< (+ (- (* (- 38) x37) (* 2 x36)) (* 14 x39)) 55)) (?v_74 (<= (+ (* 47 x12) (* 41 x13) (* 18 x23)) (- 51))) (?v_174 (< (+ (- ?v_16 (* 34 x30)) (* 55 x15)) (- 56))) (?v_33 (< (- (- (* 41 x20) (* 47 x14)) (* 24 x7)) (- 29))) (?v_159 (< (+ (- (* (- 49) x31) (* 30 x10)) (* 12 x7)) (- 9)))) (let ((?v_26 (not ?v_159)) (?v_145 (<= (- (+ (* 5 x10) (* 53 x29)) (* 25 x14)) (- 52)))) (let ((?v_115 (not ?v_145)) (?v_27 (distinct (- (+ (* (- 20) x20) (* 52 x30)) (* 51 x1)) 39))) (let ((?v_186 (not ?v_27)) (?v_158 (<= (- (+ (* (- 6) x25) (* 52 x5)) (* 32 x18)) 1))) (let ((?v_49 (not ?v_158)) (?v_69 (<= (+ (- (* 33 x39) (* 24 x38)) ?v_32) (- 2)))) (let ((?v_68 (not ?v_69)) (?v_63 (not ?v_37)) (?v_169 (= (+ (* 19 x3) (* 53 x37) (* 19 x21)) (- 34)))) (let ((?v_57 (not ?v_169)) (?v_78 (<= (- (- (* (- 2) x32) (* 35 x13)) (* 22 x28)) (- 37)))) (let ((?v_53 (not ?v_78)) (?v_77 (not ?v_47)) (?v_108 (distinct (+ (* (- 4) x29) (* 56 x1) (* 19 x23)) 23)) (?v_105 (< (- (- (* 40 x19) (* 23 x9)) x24) (- 37))) (?v_170 (< (+ (- (* (- 39) x27) (* 17 x24)) (* 11 x7)) (- 37)))) (let ((?v_139 (not ?v_170)) (?v_142 (distinct (+ (* (- 14) x22) (* 11 x22) (* 48 x15)) 20)) (?v_106 (not ?v_74)) (?v_97 (not ?v_94)) (?v_147 (not ?v_105)) (?v_117 (not ?v_108)) (?v_136 (< (+ (* (- 6) x12) ?v_153) (- 25)))) (let ((?v_198 (not ?v_136)) (?v_127 (not ?v_52)) (?v_182 (<= (+ (* (- 6) x4) ?v_153 (* 34 x21)) 25))) (let ((?v_183 (not ?v_182)) (?v_179 (not ?v_95)) (?v_176 (not ?v_174)) (?v_187 (not ?v_142)) (?v_207 (not ?v_58)) (?v_208 (not ?v_33))) (and (and (and (and (and (and (and (and (and (and (and (and (and (and (and (and (and (and (and (and (and (and (and (and (and (and (and (and (and (and (and (and (and (and (and (and (and (and (and (and (and (and (and (and (and (and (and (and (and (and (and (and (and (and (and (and (and (and (and (and (and (and (and (and (and (and (and (and (and (and (and (and (and (and (and (and (and (and (and (and (and (and (and (and (and (and (and (and (and (and (and (and (and (and (and (and (and (and (and (and (and (and (and (and (and (and (and (and (and (and (and (and (and (and (and (and (and (and (and (and (and (and (and (and (and (and (and (and (and (and (and (and (and (and (and (and (and (and (and (and (and (and (and (and (and (and (and (and (and (and (and (and (and (and (and (and (and (and (and (and (and (and (and (and (and (and (and (and (and (and (and (and (and (and (and (and (and (and (and (and (and (and (and (and (and (and (and (and (and (and (and (and (and (and (and (and (and (and (and (and (and (and (and (and (and (and (and (and (and (and (and (and (and (and (and (and (and (and (and (and (and (and (and (and (and (and (and (and (and (and (and (and (and (and (and (and (and (and (and (and (and (and (and (and (and (and (and (and (and (and (and (and (and (and (and (and (and (and (and (and (and (and (and (and (and (and (and (and (and (and (and (and (and (and (and (and (and (and (and (and (and (and (and (and (and (and (and (and (and (and (and (and (and (and (and (and (and (and (and (and (and (and (and (and (and (and (and (and (and (and (and (and (and (and (and (and (and (and (and (and (and (and (and (and (and (and (and (and (and (and (and (and (and (and (and (and (and (and (and (and (and (and (and (and (and (and (and (and (and (and (and (and (and (and (and (and (and (and (and (and (and (and (and (and (and (and (and (and (and (and (and (and (and (and (and (and (and (and (and (and (and (and (and (and (and (and (and (and (and (and (and (and (and (and (and (and (and (and (and (and (and (and (and (and (and (and (and (and (and (and (and (and (and (and (and (and (and (and (and (and (and (and (and (and (and (and (and (and (and (and (and (and (and (and (and (and (and (and (and (and (and (and (and (and (and (and (and (and (and (and (and (and (and (and (and (and (and (and (and (and (and (and (and (and (and (and (and (and (and (and (and (and (and (and (and (and (and (and (and (or (or ?v_203 ?v_206) ?v_104) (or (or ?v_54 ?v_122) P28)) (or (or ?v_4 ?v_28) P23)) (or (or ?v_52 ?v_162) ?v_189)) (or (or P38 ?v_102) ?v_0)) (or (or ?v_89 ?v_118) ?v_94)) (or (or P33 ?v_12) ?v_70)) (or (or ?v_82 ?v_1) ?v_37)) (or (or ?v_19 P34) P31)) (or (or ?v_150 ?v_1) ?v_87)) (or (or ?v_29 ?v_196) ?v_44)) (or (or ?v_21 ?v_2) ?v_72)) (or (or ?v_11 ?v_2) ?v_18)) (or (or ?v_61 ?v_93) ?v_15)) (or (or ?v_58 ?v_4) ?v_31)) (or (or ?v_66 ?v_79) ?v_48)) (or (or ?v_100 P3) ?v_190)) (or (or ?v_47 ?v_1) ?v_7)) (or (or ?v_96 ?v_20) ?v_45)) (or (or ?v_8 P7) P2)) (or (or ?v_13 P38) ?v_50)) (or (or ?v_9 ?v_80) P28)) (or (or P3 ?v_157) ?v_11)) (or (or ?v_12 P30) ?v_25)) (or (or ?v_192 ?v_13) ?v_95)) (or (or ?v_22 ?v_14) ?v_9)) (or (or P2 ?v_36) ?v_91)) (or (or ?v_74 ?v_155) ?v_15)) (or (or ?v_174 P34) ?v_0)) (or (or ?v_132 ?v_90) ?v_33)) (or (or P15 ?v_42) ?v_23)) (or (or P0 ?v_18) P10)) (or (or ?v_4 ?v_62) ?v_20)) (or (or P14 ?v_164) ?v_26)) (or (or ?v_21 ?v_39) ?v_43)) (or (or ?v_59 ?v_34) ?v_23)) (or (or ?v_41 ?v_24) P12)) (or (or ?v_40 ?v_55) ?v_25)) (or (or ?v_115 ?v_60) ?v_26)) (or (or ?v_27 ?v_186) P23)) (or (or ?v_35 ?v_109) ?v_30)) (or (or ?v_86 ?v_19) ?v_30)) (or (or ?v_49 ?v_209) ?v_68)) (or (or ?v_33 ?v_34) ?v_35)) (or (or ?v_36 ?v_46) ?v_65)) (or (or ?v_63 ?v_31) ?v_64)) (or (or ?v_39 ?v_160) ?v_41)) (or (or P1 ?v_199) ?v_171)) (or (or ?v_51 ?v_29) ?v_43)) (or (or ?v_57 ?v_22) ?v_167)) (or (or ?v_44 ?v_25) ?v_26)) (or (or ?v_26 ?v_53) ?v_45)) (or (or ?v_46 P6) ?v_77)) (or (or ?v_103 ?v_123) ?v_49)) (or (or ?v_108 ?v_50) ?v_51)) (or (or ?v_52 ?v_53) ?v_54)) (or (or ?v_105 ?v_46) ?v_55)) (or (or ?v_107 ?v_57) ?v_124)) (or (or ?v_11 ?v_11) ?v_33)) (or (or ?v_143 ?v_76) ?v_24)) (or (or P17 ?v_58) ?v_4)) (or (or P24 P24) ?v_59)) (or (or ?v_60 ?v_33) ?v_46)) (or (or ?v_113 ?v_14) ?v_62)) (or (or ?v_63 ?v_33) ?v_83)) (or (or ?v_138 ?v_64) ?v_55)) (or (or P7 ?v_65) P8)) (or (or ?v_66 ?v_67) ?v_68)) (or (or ?v_69 ?v_70) ?v_40)) (or (or ?v_175 ?v_73) P34)) (or (or ?v_72 ?v_73) ?v_2)) (or (or ?v_74 ?v_129) ?v_19)) (or (or ?v_75 ?v_24) ?v_57)) (or (or ?v_76 P20) ?v_77)) (or (or ?v_50 ?v_78) ?v_148)) (or (or ?v_81 ?v_44) ?v_79)) (or (or ?v_85 ?v_25) ?v_81)) (or (or ?v_11 ?v_184) ?v_82)) (or (or ?v_83 ?v_84) ?v_139)) (or (or ?v_85 ?v_86) P26)) (or (or ?v_66 ?v_87) ?v_48)) (or (or ?v_44 ?v_88) ?v_89)) (or (or ?v_99 ?v_131) ?v_73)) (or (or ?v_111 ?v_128) ?v_49)) (or (or P10 ?v_90) ?v_91)) (or (or ?v_40 P18) ?v_92)) (or (or ?v_39 ?v_93) P33)) (or (or ?v_142 ?v_106) ?v_156)) (or (or ?v_73 ?v_89) ?v_46)) (or (or P34 P34) ?v_97)) (or (or ?v_95 ?v_101) ?v_96)) (or (or ?v_19 ?v_126) P21)) (or (or ?v_97 P21) ?v_98)) (or (or ?v_166 ?v_100) ?v_76)) (or (or ?v_27 ?v_21) ?v_76)) (or (or ?v_101 ?v_149) ?v_8)) (or (or ?v_98 ?v_84) P23)) (or (or ?v_68 ?v_102) ?v_133)) (or (or ?v_103 ?v_110) ?v_147)) (or (or ?v_106 ?v_49) ?v_41)) (or (or ?v_94 ?v_94) P27)) (or (or ?v_73 P38) ?v_107)) (or (or ?v_178 ?v_117) ?v_109)) (or (or ?v_39 ?v_110) P17)) (or (or ?v_181 ?v_81) ?v_135)) (or (or ?v_112 ?v_113) P8)) (or (or ?v_104 P36) ?v_114)) (or (or ?v_92 ?v_45) ?v_115)) (or (or P39 P28) P2)) (or (or ?v_193 ?v_12) P18)) (or (or ?v_47 ?v_198) ?v_119)) (or (or ?v_19 ?v_117) ?v_118)) (or (or ?v_95 ?v_119) P9)) (or (or ?v_60 ?v_107) ?v_120)) (or (or ?v_49 P36) ?v_111)) (or (or P38 P6) P14)) (or (or ?v_0 ?v_39) P31)) (or (or ?v_12 ?v_19) ?v_14)) (or (or ?v_121 ?v_108) ?v_122)) (or (or ?v_123 ?v_100) ?v_74)) (or (or ?v_104 P24) P7)) (or (or ?v_84 ?v_1) ?v_75)) (or (or P29 ?v_177) ?v_114)) (or (or ?v_73 ?v_125) ?v_47)) (or (or P29 ?v_126) ?v_127)) (or (or ?v_105 P22) ?v_88)) (or (or ?v_127 ?v_52) ?v_98)) (or (or ?v_102 P6) ?v_128)) (or (or ?v_129 ?v_154) ?v_89)) (or (or ?v_130 ?v_1) ?v_7)) (or (or P17 ?v_65) ?v_52)) (or (or ?v_39 ?v_33) ?v_131)) (or (or ?v_66 ?v_132) ?v_44)) (or (or ?v_95 ?v_133) ?v_134)) (or (or ?v_135 ?v_90) ?v_136)) (or (or ?v_119 P22) ?v_47)) (or (or ?v_80 ?v_14) ?v_146)) (or (or ?v_137 P2) P3)) (or (or ?v_138 ?v_95) ?v_161)) (or (or ?v_122 ?v_111) ?v_126)) (or (or ?v_36 ?v_24) ?v_11)) (or (or ?v_140 ?v_139) ?v_13)) (or (or ?v_97 P10) ?v_109)) (or (or ?v_78 ?v_140) ?v_33)) (or (or ?v_61 P9) ?v_195)) (or (or ?v_141 ?v_7) ?v_142)) (or (or P35 P4) ?v_143)) (or (or ?v_144 ?v_145) ?v_146)) (or (or ?v_45 ?v_163) ?v_73)) (or (or ?v_77 P15) ?v_147)) (or (or ?v_104 ?v_143) P27)) (or (or ?v_148 ?v_55) P27)) (or (or P25 ?v_103) ?v_143)) (or (or ?v_129 P16) P8)) (or (or ?v_127 ?v_40) P27)) (or (or ?v_113 ?v_149) ?v_88)) (or (or ?v_150 ?v_86) ?v_151)) (or (or ?v_152 ?v_152) ?v_183)) (or (or ?v_154 ?v_97) ?v_155)) (or (or ?v_12 ?v_26) ?v_108)) (or (or P26 ?v_156) ?v_85)) (or (or ?v_157 ?v_29) ?v_108)) (or (or ?v_50 P16) ?v_158)) (or (or ?v_19 ?v_144) ?v_159)) (or (or ?v_160 ?v_173) ?v_13)) (or (or P2 ?v_68) P21)) (or (or ?v_161 ?v_162) ?v_151)) (or (or ?v_163 ?v_81) ?v_102)) (or (or ?v_86 ?v_98) ?v_164)) (or (or ?v_34 ?v_29) ?v_117)) (or (or ?v_34 ?v_142) ?v_151)) (or (or ?v_165 ?v_142) ?v_143)) (or (or ?v_168 P3) ?v_131)) (or (or ?v_29 ?v_68) ?v_19)) (or (or ?v_166 ?v_59) ?v_72)) (or (or ?v_98 ?v_127) ?v_154)) (or (or P2 P17) P13)) (or (or ?v_122 P13) ?v_157)) (or (or ?v_159 ?v_58) ?v_84)) (or (or P14 ?v_167) ?v_45)) (or (or ?v_77 ?v_131) ?v_130)) (or (or ?v_78 ?v_62) ?v_108)) (or (or ?v_64 ?v_164) ?v_51)) (or (or ?v_127 P38) ?v_120)) (or (or ?v_108 ?v_37) ?v_146)) (or (or ?v_66 ?v_168) ?v_65)) (or (or P15 P38) ?v_50)) (or (or ?v_93 ?v_22) P16)) (or (or ?v_125 ?v_0) ?v_15)) (or (or P38 ?v_165) ?v_169)) (or (or ?v_104 ?v_84) P19)) (or (or ?v_74 P14) ?v_136)) (or (or ?v_40 ?v_45) ?v_170)) (or (or P34 ?v_14) P23)) (or (or ?v_74 P13) P11)) (or (or ?v_115 ?v_131) P20)) (or (or ?v_8 ?v_79) P37)) (or (or ?v_150 ?v_171) ?v_156)) (or (or P36 ?v_185) ?v_86)) (or (or ?v_172 ?v_68) ?v_134)) (or (or ?v_61 ?v_72) P14)) (or (or ?v_194 ?v_22) ?v_43)) (or (or ?v_179 ?v_141) ?v_9)) (or (or ?v_51 ?v_89) ?v_97)) (or (or ?v_47 ?v_120) ?v_137)) (or (or ?v_23 ?v_24) ?v_55)) (or (or ?v_173 ?v_40) P26)) (or (or ?v_158 P19) P38)) (or (or ?v_169 ?v_20) P0)) (or (or ?v_45 ?v_68) ?v_168)) (or (or ?v_106 ?v_65) ?v_176)) (or (or ?v_59 ?v_175) ?v_48)) (or (or ?v_146 P23) ?v_78)) (or (or ?v_93 P12) ?v_35)) (or (or ?v_81 P5) ?v_93)) (or (or ?v_114 ?v_68) ?v_61)) (or (or ?v_176 ?v_105) ?v_167)) (or (or ?v_45 P28) ?v_201)) (or (or ?v_111 ?v_59) ?v_141)) (or (or ?v_144 ?v_102) ?v_177)) (or (or ?v_152 ?v_163) ?v_178)) (or (or ?v_35 ?v_68) P12)) (or (or ?v_66 P18) ?v_85)) (or (or ?v_163 ?v_179) ?v_7)) (or (or ?v_144 ?v_171) ?v_58)) (or (or ?v_167 ?v_98) ?v_129)) (or (or ?v_46 ?v_78) ?v_7)) (or ?v_202 ?v_40)) (or (or P18 P25) ?v_180)) (or (or ?v_109 ?v_181) ?v_101)) (or (or ?v_105 ?v_8) ?v_132)) (or (or ?v_24 ?v_54) P30)) (or (or ?v_0 ?v_41) ?v_130)) (or (or ?v_179 ?v_165) P1)) (or (or ?v_29 P39) ?v_175)) (or (or ?v_35 ?v_35) ?v_59)) (or (or ?v_129 P4) ?v_94)) (or (or ?v_21 ?v_182) ?v_63)) (or (or ?v_183 ?v_29) ?v_134)) (or (or ?v_15 P18) ?v_46)) (or (or ?v_80 ?v_50) ?v_118)) (or (or ?v_58 ?v_187) ?v_126)) (or (or ?v_131 ?v_169) ?v_96)) (or (or P9 ?v_1) ?v_113)) (or (or ?v_77 ?v_207) ?v_184)) (or (or ?v_158 P27) P22)) (or (or ?v_117 ?v_66) ?v_168)) (or (or ?v_185 ?v_161) ?v_137)) (or (or ?v_97 ?v_90) ?v_118)) (or (or ?v_62 ?v_161) ?v_51)) (or (or ?v_150 ?v_186) ?v_139)) (or (or ?v_175 ?v_149) ?v_141)) (or (or ?v_187 P33) P37)) (or (or P6 ?v_35) ?v_137)) (or (or ?v_11 P38) ?v_188)) (or (or ?v_180 ?v_155) ?v_174)) (or (or ?v_85 ?v_79) ?v_126)) (or (or ?v_22 ?v_95) ?v_54)) (or (or ?v_117 ?v_180) ?v_31)) (or (or ?v_34 P16) P7)) (or (or ?v_98 ?v_189) ?v_182)) (or (or ?v_164 P24) ?v_96)) (or (or ?v_183 ?v_84) ?v_50)) (or (or P18 ?v_61) ?v_138)) (or (or ?v_98 ?v_70) ?v_139)) (or (or ?v_86 ?v_152) ?v_123)) (or (or ?v_120 ?v_0) P30)) (or (or P38 ?v_1) ?v_161)) (or (or ?v_1 ?v_136) ?v_44)) (or (or ?v_49 P14) ?v_75)) (or (or ?v_172 P21) ?v_33)) (or (or ?v_139 ?v_137) ?v_154)) (or (or ?v_190 ?v_27) ?v_81)) (or (or P37 ?v_128) ?v_64)) (or (or ?v_112 ?v_154) ?v_99)) (or (or P25 ?v_115) P18)) (or (or P29 ?v_65) ?v_161)) (or (or P19 P27) ?v_114)) (or (or ?v_182 ?v_45) ?v_191)) (or (or ?v_12 ?v_104) ?v_162)) (or (or ?v_74 ?v_105) ?v_176)) (or (or ?v_121 ?v_190) ?v_20)) (or (or ?v_184 ?v_172) ?v_23)) (or (or ?v_118 ?v_52) ?v_73)) (or (or ?v_149 ?v_97) P15)) (or (or P17 ?v_39) ?v_0)) (or (or ?v_133 P10) ?v_128)) (or (or ?v_14 P19) ?v_187)) (or (or ?v_96 P10) ?v_37)) (or (or ?v_91 ?v_4) ?v_130)) (or (or P4 ?v_137) ?v_61)) (or (or ?v_7 ?v_78) ?v_43)) (or (or P3 P12) ?v_184)) (or (or ?v_88 ?v_95) ?v_197)) (or (or ?v_49 ?v_23) ?v_48)) (or (or ?v_135 ?v_143) P15)) (or (or ?v_140 P21) ?v_23)) (or (or ?v_191 ?v_39) P18)) (or (or P4 ?v_118) ?v_178)) (or (or ?v_192 ?v_103) P24)) (or (or ?v_157 P28) ?v_67)) (or (or ?v_37 ?v_1) ?v_103)) (or (or ?v_88 ?v_87) ?v_144)) (or (or ?v_82 ?v_64) P6)) (or (or ?v_151 ?v_92) ?v_211)) (or (or ?v_160 ?v_113) ?v_194)) (or (or ?v_149 ?v_121) P9)) (or (or P15 ?v_19) ?v_12)) (or (or ?v_144 ?v_162) ?v_55)) (or (or ?v_195 ?v_152) ?v_196)) (or (or ?v_197 ?v_53) ?v_114)) (or (or ?v_195 ?v_129) ?v_23)) (or (or ?v_66 P21) ?v_161)) (or (or P20 ?v_163) ?v_151)) (or (or ?v_174 ?v_21) ?v_160)) (or (or ?v_178 P13) ?v_61)) (or (or P20 ?v_11) P11)) (or (or ?v_204 ?v_22) ?v_138)) (or (or ?v_169 ?v_94) P12)) (or (or ?v_26 ?v_88) ?v_80)) (or (or ?v_177 ?v_109) ?v_4)) (or (or ?v_12 ?v_173) ?v_165)) (or (or ?v_121 P14) ?v_81)) (or (or ?v_76 ?v_11) ?v_198)) (or (or ?v_59 ?v_60) P9)) (or (or ?v_72 ?v_145) ?v_84)) (or (or ?v_124 P11) ?v_135)) (or (or ?v_19 ?v_167) ?v_36)) (or (or ?v_77 ?v_124) ?v_48)) (or (or ?v_41 ?v_147) ?v_18)) (or (or ?v_130 ?v_199) P12)) (or (or ?v_74 ?v_85) ?v_8)) (or (or ?v_142 ?v_44) P30)) (or (or ?v_118 ?v_74) P29)) (or (or ?v_78 ?v_75) ?v_13)) (or (or ?v_161 ?v_178) ?v_136)) (or (or ?v_169 ?v_188) ?v_74)) (or (or ?v_64 ?v_208) ?v_26)) (or (or ?v_170 ?v_122) ?v_24)) (or (or ?v_170 ?v_77) ?v_200)) (or (or ?v_25 ?v_195) P11)) (or (or ?v_152 ?v_42) ?v_59)) (or (or P24 ?v_0) P4)) (or (or ?v_34 P21) ?v_200)) (or (or P33 ?v_49) ?v_201)) (or ?v_202 P3)) (or (or ?v_0 ?v_187) ?v_182)) (or (or ?v_39 ?v_58) ?v_120)) (or (or P33 P39) ?v_203)) (or (or ?v_196 ?v_126) ?v_76)) (or (or ?v_164 ?v_118) ?v_40)) (or (or ?v_99 ?v_99) P27)) (or (or ?v_191 ?v_70) ?v_51)) (or (or ?v_84 P26) ?v_78)) (or (or ?v_9 ?v_86) ?v_61)) (or (or ?v_98 ?v_158) ?v_97)) (or (or ?v_25 ?v_101) ?v_160)) (or (or ?v_52 ?v_143) ?v_198)) (or (or ?v_35 ?v_40) ?v_155)) (or (or ?v_91 ?v_99) ?v_137)) (or (or ?v_83 ?v_110) ?v_204)) (or (or ?v_37 ?v_129) ?v_85)) (or (or ?v_139 ?v_31) ?v_152)) (or (or ?v_40 ?v_93) ?v_23)) (or (or ?v_59 ?v_186) ?v_159)) (or (or ?v_138 ?v_156) ?v_95)) (or (or ?v_40 ?v_164) ?v_73)) (or (or ?v_94 ?v_26) ?v_164)) (or (or P30 ?v_173) P25)) (or (or ?v_171 ?v_48) ?v_180)) (or (or ?v_193 ?v_18) ?v_37)) (or (or ?v_210 ?v_108) ?v_126)) (or (or ?v_61 ?v_62) P37)) (or (or ?v_119 ?v_7) ?v_205)) (or (or ?v_9 P38) ?v_91)) (or (or ?v_175 ?v_206) ?v_30)) (or (or ?v_60 ?v_152) ?v_182)) (or (or ?v_169 ?v_207) ?v_102)) (or (or ?v_106 ?v_179) ?v_133)) (or (or ?v_185 ?v_109) ?v_168)) (or (or ?v_139 ?v_145) ?v_188)) (or (or ?v_79 ?v_55) ?v_118)) (or (or ?v_101 ?v_92) P16)) (or (or P4 ?v_79) ?v_7)) (or (or ?v_64 ?v_175) ?v_171)) (or (or ?v_25 ?v_124) ?v_13)) (or (or ?v_15 ?v_1) ?v_122)) (or (or P0 ?v_79) P36)) (or (or ?v_73 ?v_155) ?v_181)) (or (or ?v_132 ?v_39) ?v_55)) (or (or P34 ?v_42) ?v_102)) (or (or ?v_166 P27) P14)) (or (or ?v_199 ?v_205) ?v_176)) (or (or ?v_84 ?v_31) ?v_157)) (or (or ?v_180 ?v_208) ?v_4)) (or (or ?v_190 ?v_126) ?v_48)) (or (or ?v_62 ?v_43) P30)) (or (or ?v_13 ?v_208) ?v_119)) (or (or P13 ?v_112) ?v_62)) (or (or ?v_194 ?v_96) P26)) (or (or ?v_20 ?v_187) ?v_151)) (or (or ?v_54 ?v_43) ?v_28)) (or (or ?v_122 ?v_101) ?v_111)) (or (or P18 ?v_176) ?v_2)) (or (or ?v_209 ?v_107) ?v_158)) (or (or ?v_92 ?v_85) ?v_178)) (or (or ?v_101 ?v_145) ?v_45)) (or (or ?v_150 ?v_30) ?v_115)) (or (or ?v_88 ?v_145) P35)) (or (or ?v_154 ?v_203) ?v_136)) (or (or P4 ?v_45) ?v_194)) (or (or P39 ?v_109) ?v_102)) (or (or P6 ?v_44) ?v_88)) (or (or ?v_184 ?v_47) ?v_175)) (or (or ?v_157 ?v_85) ?v_204)) (or (or ?v_171 ?v_92) P0)) (or (or ?v_74 P20) ?v_140)) (or (or ?v_95 ?v_36) ?v_39)) (or (or ?v_163 P33) ?v_200)) (or (or ?v_152 ?v_113) ?v_184)) (or (or ?v_128 ?v_198) ?v_25)) (or (or ?v_104 ?v_72) P30)) (or (or ?v_26 ?v_122) ?v_36)) (or (or ?v_83 ?v_159) ?v_136)) (or (or ?v_120 P20) ?v_69)) (or (or P32 ?v_53) ?v_49)) (or (or ?v_46 ?v_59) ?v_166)) (or (or P23 P32) ?v_11)) (or (or ?v_132 ?v_93) P30)) (or (or ?v_105 ?v_139) ?v_210)) (or (or ?v_102 ?v_176) ?v_55)) (or (or ?v_53 ?v_179) P4)) (or (or ?v_184 ?v_135) P18)) (or (or ?v_146 ?v_74) ?v_145)) (or (or ?v_177 P35) P22)) (or (or ?v_130 ?v_12) ?v_155)) (or (or ?v_101 P8) ?v_148)) (or (or ?v_1 ?v_108) P25)) (or (or P16 P29) ?v_87)) (or (or ?v_119 ?v_112) ?v_86)) (or (or ?v_62 ?v_4) ?v_9)) (or (or ?v_138 ?v_184) ?v_194)) (or (or ?v_203 P8) ?v_29)) (or (or ?v_136 ?v_26) ?v_58)) (or (or ?v_135 ?v_79) ?v_121)) (or (or ?v_123 ?v_128) P19)) (or (or P3 P39) ?v_157)) (or (or ?v_88 ?v_28) ?v_208)) (or (or ?v_157 ?v_196) P4)) (or (or ?v_87 ?v_150) ?v_55)) (or (or ?v_99 ?v_101) ?v_173)) (or (or ?v_163 ?v_126) ?v_134)) (or (or ?v_152 ?v_123) ?v_173)) (or (or ?v_53 ?v_163) ?v_156)) (or (or ?v_36 ?v_133) ?v_114)) (or (or ?v_13 P34) ?v_88)) (or (or ?v_189 ?v_127) ?v_72)) (or (or ?v_162 ?v_45) ?v_90)) (or (or ?v_194 ?v_127) ?v_157)) (or (or ?v_33 ?v_2) ?v_42)) (or (or ?v_192 ?v_35) ?v_78)) (or (or ?v_176 ?v_26) ?v_155)) (or (or ?v_96 ?v_109) ?v_36)) (or (or ?v_159 ?v_112) ?v_34)) (or (or ?v_77 ?v_171) ?v_149)) (or (or ?v_122 ?v_62) ?v_193)) (or (or ?v_18 P3) P13)) (or (or ?v_118 P15) ?v_82)) (or (or ?v_210 ?v_158) ?v_148)) (or (or ?v_90 ?v_165) ?v_105)) (or (or ?v_92 ?v_197) ?v_205)) (or (or ?v_95 P32) ?v_149)) (or (or ?v_123 ?v_1) ?v_198)) (or (or ?v_35 ?v_205) ?v_155)) (or (or ?v_161 ?v_52) ?v_2)) (or (or ?v_130 ?v_72) ?v_172)) (or (or P35 P24) P39)) (or (or ?v_74 ?v_12) ?v_190)) (or (or ?v_23 ?v_30) ?v_39)) (or (or ?v_166 ?v_117) ?v_211))))))))))))))))))))))))))))))))))
(check-sat)
(exit)
